Copyright (C) 2013-2015, Filipe Brandao
Build (method = -2)
  #dp: 15344
  Step-3' Graph: 265 vertices and 7839 arcs (0.03s)
  Step-4' Graph: 260 vertices and 7829 arcs (0.03s)
  #V4/#V3 = 0.98
  #A4/#A3 = 1.00
Ready! (0.03s)
Optimize a model with 395 rows, 7830 columns and 22974 nonzeros
Presolve removed 63 rows and 65 columns
Presolve time: 0.04s
Presolved: 332 rows, 7765 columns, 22630 nonzeros
Variable types: 0 continuous, 7765 integer (5211 binary)
Found heuristic solution: objective 133.0000000
Optimize a model with 332 rows, 7765 columns and 22630 nonzeros
Presolved: 332 rows, 7765 columns, 22630 nonzeros

Root barrier log...

Ordering time: 0.00s

Barrier statistics:
 AA' NZ     : 1.389e+04
 Factor NZ  : 3.175e+04 (roughly 4 MBytes of memory)
 Factor Ops : 4.167e+06 (less than 1 second per iteration)
 Threads    : 1

                  Objective                Residual
Iter       Primal          Dual         Primal    Dual     Compl     Time
   0   4.19232755e+03 -3.39219627e+04  3.08e+04 1.33e-01  1.57e+01     0s
   1   1.33152510e+03 -9.19169785e+03  3.73e+03 5.55e-16  2.21e+00     0s
   2   4.85918704e+02 -4.58937518e+03  5.96e+02 2.52e-02  5.60e-01     0s
   3   2.78478991e+02 -8.20634150e+02  9.65e+01 3.20e-03  1.05e-01     0s
   4   1.76868857e+02 -2.31812815e+02  1.81e+01 1.04e-03  3.15e-02     0s
   5   1.50519488e+02 -9.27153437e+01  9.20e+00 5.56e-04  1.78e-02     0s
   6   1.33523819e+02 -2.63206721e+01  5.10e+00 3.21e-04  1.13e-02     0s
   7   1.16766384e+02  3.59524452e+01  2.08e+00 8.81e-05  5.52e-03     0s
   8   1.10720865e+02  5.76625336e+01  1.38e+00 3.33e-16  3.61e-03     0s
   9   1.02436863e+02  7.93122458e+01  4.36e-01 2.31e-16  1.55e-03     0s
  10   9.98053168e+01  9.21492476e+01  2.35e-01 3.33e-16  5.25e-04     0s
  11   9.78059683e+01  9.48905448e+01  3.40e-02 2.39e-16  1.92e-04     0s
  12   9.75459031e+01  9.74248871e+01  5.60e-03 4.78e-16  8.59e-06     0s
  13   9.75000815e+01  9.74998254e+01  1.44e-06 3.53e-16  1.67e-08     0s
  14   9.75000000e+01  9.75000000e+01  1.69e-12 3.46e-16  1.67e-14     0s

Barrier solved model in 14 iterations and 0.07 seconds
Optimal objective 9.75000000e+01


Root relaxation: objective 9.750000e+01, 3773 iterations, 0.08 seconds

    Nodes    |    Current Node    |     Objective Bounds      |     Work
 Expl Unexpl |  Obj  Depth IntInf | Incumbent    BestBd   Gap | It/Node Time

     0     0   97.50000    0    2  133.00000   97.50000  26.7%     -    0s
H    0     0                      98.0000000   97.50000  0.51%     -    0s

Explored 0 nodes (4500 simplex iterations) in 0.20 seconds
Thread count was 1 (of 4 available processors)

Optimal solution found (tolerance 0.00e+00)
Best objective 9.800000000000e+01, best bound 9.800000000000e+01, gap 0.0%
Preprocessing time: 0.04 seconds
Gurobi run time: 0.20 seconds
Total run time: 0.24 seconds
Objective: 98
Solution:
1 x [i=1, i=135]
1 x [i=2, i=112]
1 x [i=2, i=131]
1 x [i=2, i=132]
1 x [i=3, i=115]
1 x [i=4, i=111]
2 x [i=4, i=122]
1 x [i=4, i=124]
1 x [i=5, i=121]
1 x [i=6, i=109]
1 x [i=7, i=125]
1 x [i=8, i=108]
1 x [i=8, i=113]
1 x [i=9, i=120]
1 x [i=10, i=130]
1 x [i=11, i=109]
1 x [i=12, i=107]
1 x [i=13, i=106]
2 x [i=13, i=115]
1 x [i=14, i=126]
1 x [i=14, i=127]
1 x [i=14, i=128]
2 x [i=14, i=129]
1 x [i=15, i=104]
2 x [i=16, i=105]
1 x [i=17, i=125]
1 x [i=18, i=125, i=130]
1 x [i=19, i=101]
1 x [i=20, i=100]
1 x [i=20, i=101]
1 x [i=21, i=99]
1 x [i=21, i=102]
1 x [i=22, i=97]
1 x [i=22, i=98]
1 x [i=23, i=92]
1 x [i=24, i=125]
1 x [i=25, i=93]
1 x [i=25, i=110]
1 x [i=26, i=96]
1 x [i=27, i=95]
1 x [i=28, i=90]
1 x [i=29, i=91]
1 x [i=30, i=90]
1 x [i=30, i=95]
1 x [i=31, i=114, i=133]
1 x [i=32, i=119, i=134]
1 x [i=33, i=88]
1 x [i=33, i=89]
1 x [i=34, i=86]
1 x [i=34, i=87]
1 x [i=34, i=94]
1 x [i=35, i=85]
2 x [i=36, i=84]
1 x [i=36, i=117, i=118]
1 x [i=36, i=123]
1 x [i=37, i=83]
1 x [i=37, i=123]
1 x [i=38, i=82]
1 x [i=39, i=81]
1 x [i=39, i=108, i=133]
1 x [i=40, i=80]
1 x [i=41, i=86]
1 x [i=42, i=78]
1 x [i=43, i=76]
1 x [i=43, i=79]
1 x [i=44, i=75]
1 x [i=45, i=73]
1 x [i=46, i=71]
1 x [i=46, i=74]
1 x [i=46, i=75]
1 x [i=47, i=68]
1 x [i=47, i=69]
1 x [i=48, i=70]
1 x [i=49, i=66]
1 x [i=49, i=103, i=116]
1 x [i=50, i=72]
1 x [i=51, i=66]
1 x [i=51, i=67]
2 x [i=52, i=65]
1 x [i=53]
1 x [i=54, i=65]
1 x [i=55, i=63]
1 x [i=55, i=64]
1 x [i=56, i=62]
1 x [i=56, i=63]
1 x [i=57, i=77]
1 x [i=58, i=60]
3 x [i=58, i=61]
1 x [i=59]
1 x [i=59, i=59]
